/*********************************************
 * OPL 12.5 Data
 * Author: user
 * Creation Date: 08-Feb-2023 at 3:49:08 PM
 *********************************************/
p=4;
 maccost=[100,150,200,250];
 profit=[7,8,7,9];
 res=180;
 wood=170;
 rr=[4,3,7,5];
 wr=[6,5,3,6];